c Circuit verification problem 03
c Complex hardware verification instance
c Generated for SAT solver benchmarking
c This problem involves circuit equivalence checking
c Expected difficulty: medium-hard (10-25 seconds)
p cnf 135 478
1 2 -3 0
-1 4 5 0
-2 -4 6 0
3 -5 -6 0
7 8 9 0
-7 10 -11 0
-8 -10 12 0
-9 11 -12 0
13 14 -15 0
-13 16 17 0
-14 -16 18 0
15 -17 -18 0
19 20 21 0
-19 -20 22 0
-21 -22 23 0
24 25 -26 0
-24 27 28 0
-25 -27 29 0
26 -28 -29 0
30 31 32 0
-30 -31 33 0
-32 -33 34 0
35 36 -37 0
-35 38 39 0
-36 -38 40 0
37 -39 -40 0
41 42 43 0
-41 -42 44 0
-43 -44 45 0
46 47 -48 0
-46 49 50 0
-47 -49 51 0
48 -50 -51 0
52 53 54 0
-52 -53 55 0
-54 -55 56 0
57 58 -59 0
-57 60 61 0
-58 -60 62 0
59 -61 -62 0
63 64 65 0
-63 -64 66 0
-65 -66 67 0
68 69 -70 0
-68 71 72 0
-69 -71 73 0
70 -72 -73 0
74 75 76 0
-74 -75 77 0
-76 -77 78 0
79 80 -81 0
-79 82 83 0
-80 -82 84 0
81 -83 -84 0
85 86 87 0
-85 -86 88 0
-87 -88 89 0
90 91 -92 0
-90 93 94 0
-91 -93 95 0
92 -94 -95 0
96 97 98 0
-96 -97 99 0
-98 -99 100 0
101 102 -103 0
-101 104 105 0
-102 -104 106 0
103 -105 -106 0
107 108 109 0
-107 -108 110 0
-109 -110 111 0
112 113 -114 0
-112 115 116 0
-113 -115 117 0
114 -116 -117 0
118 119 120 0
-118 -119 121 0
-120 -121 122 0
123 124 -125 0
-123 126 127 0
-124 -126 128 0
125 -127 -128 0
129 130 131 0
-129 -130 132 0
-131 -132 133 0
-1 -7 -13 0
-4 -10 -16 0
-6 -12 -18 0
-19 -24 -30 0
-22 -27 -33 0
-23 -29 -34 0
-35 -41 -46 0
-38 -44 -49 0
-40 -45 -51 0
-52 -57 -63 0
-55 -60 -66 0
-56 -62 -67 0
-68 -74 -79 0
-71 -77 -82 0
-73 -78 -84 0
-85 -90 -96 0
-88 -93 -99 0
-89 -95 -100 0
-101 -107 -112 0
-104 -110 -115 0
-106 -111 -117 0
-118 -123 -129 0
-121 -126 -132 0
-122 -128 -133 0
1 19 35 0
4 22 38 0
6 23 40 0
7 24 41 0
10 27 44 0
12 29 45 0
13 30 46 0
16 33 49 0
18 34 51 0
52 68 85 0
55 71 88 0
56 73 89 0
57 74 90 0
60 77 93 0
62 78 95 0
63 79 96 0
66 82 99 0
67 84 100 0
101 118 134 0
104 121 135 0
106 122 -134 0
107 123 -135 0
110 126 134 0
111 128 135 0
-3 8 14 0
-5 -9 -15 0
3 9 15 0
5 -8 -14 0
-20 25 31 0
-21 -26 -32 0
20 26 32 0
21 -25 -31 0
-36 42 47 0
-37 -43 -48 0
36 43 48 0
37 -42 -47 0
-53 58 64 0
-54 -59 -65 0
53 59 65 0
54 -58 -64 0
-69 75 80 0
-70 -76 -81 0
69 76 81 0
70 -75 -80 0
-86 91 97 0
-87 -92 -98 0
86 92 98 0
87 -91 -97 0
-102 108 113 0
-103 -109 -114 0
102 109 114 0
103 -108 -113 0
-119 124 130 0
-120 -125 -131 0
119 125 131 0
120 -124 -130 0
1 -19 52 0
-1 19 -52 0
4 -22 55 0
-4 22 -55 0
7 -24 57 0
-7 24 -57 0
13 -30 63 0
-13 30 -63 0
35 -68 101 0
-35 68 -101 0
38 -71 104 0
-38 71 -104 0
41 -74 107 0
-41 74 -107 0
46 -79 112 0
-46 79 -112 0
52 -85 118 0
-52 85 -118 0
57 -90 123 0
-57 90 -123 0
63 -96 129 0
-63 96 -129 0
68 -101 134 0
85 -118 135 0
101 -134 -135 0
118 134 135 0
2 -11 17 0
-2 11 -17 0
8 -20 28 0
-8 20 -28 0
14 -36 39 0
-14 36 -39 0
25 -53 61 0
-25 53 -61 0
31 -69 72 0
-31 69 -72 0
42 -86 94 0
-42 86 -94 0
47 -102 105 0
-47 102 -105 0
58 -119 127 0
-58 119 -127 0
64 -124 -130 0
75 -86 -97 0
80 -91 -92 0
91 -75 -81 0
97 -80 -76 0
3 5 -2 0
-3 -5 2 0
9 -8 -11 0
-9 8 11 0
15 -14 -17 0
-15 14 17 0
20 21 -25 0
-20 -21 25 0
26 -25 -28 0
-26 25 28 0
32 -31 -28 0
-32 31 28 0
36 37 -42 0
-36 -37 42 0
43 -42 -39 0
-43 42 39 0
48 -47 -39 0
-48 47 39 0
53 54 -58 0
-53 -54 58 0
59 -58 -61 0
-59 58 61 0
65 -64 -61 0
-65 64 61 0
69 70 -75 0
-69 -70 75 0
76 -75 -72 0
-76 75 72 0
81 -80 -72 0
-81 80 72 0
86 87 -91 0
-86 -87 91 0
92 -91 -94 0
-92 91 94 0
98 -97 -94 0
-98 97 94 0
102 103 -108 0
-102 -103 108 0
109 -108 -105 0
-109 108 105 0
114 -113 -105 0
-114 113 105 0
119 120 -124 0
-119 -120 124 0
125 -124 -127 0
-125 124 127 0
131 -130 -127 0
-131 130 127 0
1 4 7 13 0
-1 -4 -7 -13 0
35 38 41 46 0
-35 -38 -41 -46 0
52 55 57 63 0
-52 -55 -57 -63 0
68 71 74 79 0
-68 -71 -74 -79 0
85 88 90 96 0
-85 -88 -90 -96 0
101 104 107 112 0
-101 -104 -107 -112 0
118 121 123 129 0
-118 -121 -123 -129 0
2 8 14 20 0
-2 -8 -14 -20 0
25 31 36 42 0
-25 -31 -36 -42 0
47 53 58 64 0
-47 -53 -58 -64 0
69 75 80 86 0
-69 -75 -80 -86 0
91 97 102 108 0
-91 -97 -102 -108 0
113 119 124 130 0
-113 -119 -124 -130 0
3 9 15 21 0
-3 -9 -15 -21 0
26 32 37 43 0
-26 -32 -37 -43 0
48 54 59 65 0
-48 -54 -59 -65 0
70 76 81 87 0
-70 -76 -81 -87 0
92 98 103 109 0
-92 -98 -103 -109 0
114 120 125 131 0
-114 -120 -125 -131 0
5 11 17 23 0
-5 -11 -17 -23 0
28 34 39 45 0
-28 -34 -39 -45 0
50 56 61 67 0
-50 -56 -61 -67 0
72 78 83 89 0
-72 -78 -83 -89 0
94 100 105 111 0
-94 -100 -105 -111 0
116 122 127 133 0
-116 -122 -127 -133 0
6 12 18 22 0
-6 -12 -18 -22 0
27 33 40 44 0
-27 -33 -40 -44 0
49 55 62 66 0
-49 -55 -62 -66 0
71 77 84 88 0
-71 -77 -84 -88 0
93 99 106 110 0
-93 -99 -106 -110 0
115 121 128 132 0
-115 -121 -128 -132 0
1 -4 6 -12 0
-1 4 -6 12 0
7 -10 18 -16 0
-7 10 -18 16 0
13 -22 23 -27 0
-13 22 -23 27 0
19 -38 40 -44 0
-19 38 -40 44 0
24 -55 56 -60 0
-24 55 -56 60 0
30 -71 73 -77 0
-30 71 -73 77 0
35 -88 89 -93 0
-35 88 -89 93 0
41 -104 106 -110 0
-41 104 -106 110 0
46 -121 122 -126 0
-46 121 -122 126 0
52 134 -135 0
-52 -134 135 0
57 -134 135 0
-57 134 -135 0
63 134 135 0
-63 -134 -135 0
68 -134 -135 0
-68 134 135 0
85 134 -135 0
-85 -134 135 0
90 -134 135 0
-90 134 -135 0
96 134 135 0
-96 -134 -135 0
101 -134 -135 0
-101 134 135 0
107 134 -135 0
-107 -134 135 0
112 -134 135 0
-112 134 -135 0
118 134 135 0
-118 -134 -135 0
123 -134 -135 0
-123 134 135 0
129 134 -135 0
-129 -134 135 0
1 2 3 4 5 0
6 7 8 9 10 0
11 12 13 14 15 0
16 17 18 19 20 0
21 22 23 24 25 0
26 27 28 29 30 0
31 32 33 34 35 0
36 37 38 39 40 0
41 42 43 44 45 0
46 47 48 49 50 0
51 52 53 54 55 0
56 57 58 59 60 0
61 62 63 64 65 0
66 67 68 69 70 0
71 72 73 74 75 0
76 77 78 79 80 0
81 82 83 84 85 0
86 87 88 89 90 0
91 92 93 94 95 0
96 97 98 99 100 0
101 102 103 104 105 0
106 107 108 109 110 0
111 112 113 114 115 0
116 117 118 119 120 0
121 122 123 124 125 0
126 127 128 129 130 0
131 132 133 134 135 0
-1 -2 -3 -4 -5 0
-6 -7 -8 -9 -10 0
-11 -12 -13 -14 -15 0
-16 -17 -18 -19 -20 0
-21 -22 -23 -24 -25 0
-26 -27 -28 -29 -30 0
-31 -32 -33 -34 -35 0
-36 -37 -38 -39 -40 0
-41 -42 -43 -44 -45 0
-46 -47 -48 -49 -50 0
-51 -52 -53 -54 -55 0
-56 -57 -58 -59 -60 0
-61 -62 -63 -64 -65 0
-66 -67 -68 -69 -70 0
-71 -72 -73 -74 -75 0
-76 -77 -78 -79 -80 0
-81 -82 -83 -84 -85 0
-86 -87 -88 -89 -90 0
-91 -92 -93 -94 -95 0
-96 -97 -98 -99 -100 0
-101 -102 -103 -104 -105 0
-106 -107 -108 -109 -110 0
-111 -112 -113 -114 -115 0
-116 -117 -118 -119 -120 0
-121 -122 -123 -124 -125 0
-126 -127 -128 -129 -130 0
-131 -132 -133 -134 -135 0